param sigma
:	1	2 :=
1	0.00001	0.99999
2	0.1	0.9
3	0.2	0.8
4	0.3	0.7
5	0.4	0.6
6	0.5	0.5
7	0.6	0.4
8	0.7	0.3
9	0.8	0.2
10	0.9	0.1
11	0.99999	0.00001
;

set S:=
1 2 3 4 5 6 7 8 9 10 11 12 13 14 15 16 17 18 19 ;

set C:=
1 2 3 4 5 6 7 8 9 10 11 12 13 14 15 16 17 18 19 20 21 22 23 24 25 26 27 28 29 30 31 32 33 34 35 36 37 38 39 40 41 42 ;

set M:=
1 2 3 4 5 6 7 8 9 10 11 12 13 14 15 16 17 18 19 20 21 ;

set T:=
1_1_2 1_3_4 1_5_6 1_7_8 1_9_10 
2_1_2 2_3_4 2_5_6 2_7_8 2_9_10
3_1_2 3_3_4 3_5_6 3_7_8 3_9_10 
4_1_2 4_3_4 4_5_6 4_7_8 4_9_10 
5_1_2 5_3_4 5_5_6 5_7_8 5_9_10 
;

param con:=
1_1_2 1_3_4 1
1_3_4 1_5_6 1
1_5_6 1_7_8 1
1_7_8 1_9_10 1

2_1_2 2_3_4 1
2_3_4 2_5_6 1
2_5_6 2_7_8 1
2_7_8 2_9_10 1

3_1_2 3_3_4 1
3_3_4 3_5_6 1
3_5_6 3_7_8 1
3_7_8 3_9_10 1

4_1_2 4_3_4 1
4_3_4 4_5_6 1
4_5_6 4_7_8 1
4_7_8 4_9_10 1

5_1_2 5_3_4 1
5_3_4 5_5_6 1
5_5_6 5_7_8 1
5_7_8 5_9_10 1

;

set R:=
1 2 3 4 5 6 7 ;

set Ms[1]:=
1 19 20 7 8 ;
set Ms[2]:=
1 19 7 8 11 ;
set Ms[3]:=
19 4 5 8 9 ;
set Ms[4]:=
3 5 6 9 15 ;
set Ms[5]:=
3 5 6 9 15 ;
set Ms[6]:=
3 5 6 9 15 ;
set Ms[7]:=
17 2 5 6 7 10 ;
set Ms[8]:=
3 5 6 7 10 ;
set Ms[9]:=
17 5 6 9 10 ;
set Ms[10]:=
17 4 5 6 9 ;
set Ms[11]:=
18 19 3 21 7 ;
set Ms[12]:=
16 2 7 9 11 12 ;
set Ms[13]:=
16 17 20 12 13 ;
set Ms[14]:=
3 5 6 9 14 ;
set Ms[15]:=
3 5 6 11 14 ;
set Ms[16]:=
3 5 21 6 14 ;
set Ms[17]:=
18 3 21 6 9 ;
set Ms[18]:=
3 6 9 11 12 ;
set Ms[19]:=
17 18 4 5 7 ;

set Rc[1]:=
2 4 6 ;
set Rc[2]:=
1 3 5 7 ;
set Rc[3]:=
2 4 6 ;
set Rc[4]:=
1 3 5 7 ;
set Rc[5]:=
2 4 6 ;
set Rc[6]:=
1 3 5 7 ;
set Rc[7]:=
2 4 6 ;
set Rc[8]:=
1 3 5 7 ;
set Rc[9]:=
2 4 6 ;
set Rc[10]:=
1 3 5 7 ;
set Rc[11]:=
2 4 6 ;
set Rc[12]:=
1 3 5 7 ;
set Rc[13]:=
2 4 6 ;
set Rc[14]:=
1 3 5 7 ;
set Rc[15]:=
2 4 6 ;
set Rc[16]:=
1 3 5 7 ;
set Rc[17]:=
2 4 6 ;
set Rc[18]:=
1 3 5 7 ;
set Rc[19]:=
2 4 6 ;
set Rc[20]:=
1 3 5 7 ;
set Rc[21]:=
2 4 6 ;
set Rc[22]:=
1 3 5 7 ;
set Rc[23]:=
2 4 6 ;
set Rc[24]:=
1 3 5 7 ;
set Rc[25]:=
2 4 6 ;
set Rc[26]:=
1 3 5 7 ;
set Rc[27]:=
2 4 6 ;
set Rc[28]:=
1 3 5 7 ;
set Rc[29]:=
2 4 6 ;
set Rc[30]:=
1 3 5 7 ;
set Rc[31]:=
2 4 6 ;
set Rc[32]:=
1 3 5 7 ;
set Rc[33]:=
2 4 6 ;
set Rc[34]:=
1 3 5 7 ;
set Rc[35]:=
2 4 6 ;
set Rc[36]:=
1 3 5 7 ;
set Rc[37]:=
2 4 6 ;
set Rc[38]:=
1 3 5 7 ;
set Rc[39]:=
2 4 6 ;
set Rc[40]:=
1 3 5 7 ;
set Rc[41]:=
2 4 6 ;
set Rc[42]:=
1 3 5 7 ;

param A:=
1 3 2 1 5 3
2 4 10 2 6 18
3 1 2 3 5 12
4 2 10 4 6 7
5 1 3 5 3 12
6 2 18 6 4 7
;

param CM:=
1 1 1 1 2 1
2 3 1 2 4 1
3 5 1 3 6 1
4 7 1 4 8 1
5 9 1 5 10 1
6 11 1 6 12 1
7 13 1 7 14 1
8 15 1 8 16 1
9 17 1 9 18 1
10 19 1 10 20 1
11 21 1 11 22 1
12 23 1 12 24 1
13 25 1 13 26 1
14 27 1 14 28 1
15 29 1 15 30 1
16 31 1 16 32 1
17 33 1 17 34 1
18 35 1 18 36 1
19 37 1 19 38 1
20 39 1 20 40 1
21 41 1 21 42 1
;

param room_cpcty :=
1 10
2 10
3 10
4 10
5 10
6 10
7 10
;

param class_limit:=
1 100
2 100
3 100
4 100
5 100
6 100
7 100
8 100
9 100
10 100
11 100
12 100
13 100
14 100
15 100
16 100
17 100
18 100
19 100
20 100
21 100
22 100
23 100
24 100
25 100
26 100
27 100
28 100
29 100
30 100
31 100
32 100
33 100
34 100
35 100
36 100
37 100
38 100
39 100
40 100
41 100
42 100
;

param kmin :=
1 1
2 1
3 2
4 5
5 5
6 5
7 5
8 2
9 2
10 2
11 2
12 3
13 2
14 2
15 2
16 2
17 2
18 2
19 2
;

param kmax :=
1 10
2 10
3 10
4 10
5 10
6 10
7 10
8 10
9 10
10 10
11 10
12 10
13 10
14 10
15 10
16 10
17 10
18 10
19 10
;
